474 473 472 494 495 518 519 520 521 522 523 524 525 526 528 529 530 233 232 234 235 236 237 240 239 238 246 247 245 244 243 242 241 248 249 250 251 252 254 253 255 256 257 300 299 258 259 260 261 262 263 264 265 266 298 297 296 295 294 291 292 293 270 269 268 267 271 272 273 274 275 276 277 290 289 288 278 279 282 281 280 287 286 285 284 283 334 335 336 337 338 339 333 332 331 330 340 341 342 343 344 345 346 364 363 361 362 347 348 350 349 358 359 360 401 402 356 357 355 354 353 352 351 415 416 414 413 417 412 411 410 418 419 420 421 422 423 424 425 426 427 428 429 430 432 433 434 435 436 437 438 454 455 456 457 458 459 460 463 462 461 452 453 440 439 443 444 445 431 382 386 385 383 384 409 408 407 406 405 404 403 400 399 398 397 387 388 389 390 392 391 393 394 395 396 371 372 370 369 368 365 367 366 329 328 327 326 325 324 323 322 373 316 314 315 374 375 376 377 378 379 380 381 447 446 442 448 449 441 450 451 311 312 313 317 321 320 319 318 305 306 304 307 303 301 302 508 507 506 509 510 511 512 527 513 514 515 516 517 504 505 308 309 310 503 502 498 501 500 499 497 496 470 471 469 468 467 465 464 466 571 572 573 0 1 2 3 4 5 6 7 8 9 10 11 15 16 17 18 19 20 14 13 12 23 22 21 24 25 26 27 28 29 31 30 32 36 37 38 35 33 34 558 559 550 551 101 100 552 99 98 102 103 96 95 97 94 89 90 87 86 85 84 51 50 92 93 91 46 45 555 554 553 556 557 41 40 39 42 43 44 47 48 49 54 52 53 55 56 83 82 57 58 59 81 80 79 61 60 63 62 64 76 78 88 77 75 74 73 119 118 120 121 122 123 71 72 65 66 67 68 70 69 124 125 126 127 128 129 137 138 139 140 141 151 150 149 152 148 147 153 157 158 145 146 142 143 144 136 135 134 133 132 130 131 113 161 160 159 156 155 154 165 201 200 199 198 202 204 203 208 207 206 205 197 196 195 194 209 210 211 212 213 214 215 216 217 223 224 222 221 220 218 219 193 192 191 190 226 225 189 227 228 229 230 231 533 532 531 489 488 534 535 487 486 490 491 492 493 475 476 477 478 479 480 481 482 483 485 484 536 537 539 538 540 176 177 178 187 188 186 185 184 183 182 179 181 180 166 167 164 163 162 168 169 171 170 172 175 174 173 108 109 110 111 112 114 115 116 117 106 105 104 107 542 541 543 544 547 546 545 548 549 560 561 562 563 564 565 566 567 568 569 570